
List of user-set options:

                                    Name   Value                used
                        file_print_level = 5                     yes
                   hessian_approximation = limited-memory        yes
                                  hsllib = /home/grant/packages/ThirdParty-HSL/.libs/libcoinhsl.so  yes
                           linear_solver = ma97                  yes
                                max_iter = 100                   yes
                             output_file = IPOPT.out             yes
                             print_level = 0                     yes
                      print_user_options = yes                   yes
                                      sb = yes                   yes
This is Ipopt version 3.14.7, running with linear solver ma97.

Number of nonzeros in equality constraint Jacobian...:        0
Number of nonzeros in inequality constraint Jacobian.:        6
Number of nonzeros in Lagrangian Hessian.............:        0

Total number of variables............................:        6
                     variables with only lower bounds:        0
                variables with lower and upper bounds:        6
                     variables with only upper bounds:        0
Total number of equality constraints.................:        0
Total number of inequality constraints...............:        1
        inequality constraints with only lower bounds:        0
   inequality constraints with lower and upper bounds:        0
        inequality constraints with only upper bounds:        0

iter    objective    inf_pr   inf_du lg(mu)  ||d||  lg(rg) alpha_du alpha_pr  ls
   0  5.9115091e+00 0.00e+00 1.85e+00   0.0 0.00e+00    -  0.00e+00 0.00e+00   0
   1  6.3732124e-01 0.00e+00 1.66e+00  -0.4 9.60e-01    -  8.07e-01 1.00e+00f  1
   2  4.0256733e-01 0.00e+00 1.47e+00  -1.1 1.27e+00    -  9.98e-01 2.50e-01f  3
   3  3.6067249e-01 0.00e+00 1.40e+00  -1.9 3.80e-01    -  1.00e+00 1.00e+00f  1
   4  1.9490306e-01 0.00e+00 5.86e-01  -1.3 3.20e-01    -  9.67e-01 1.00e+00f  1
   5  1.5790877e-01 0.00e+00 1.69e-01  -2.8 7.84e-02    -  1.00e+00 1.00e+00f  1
   6  8.9492551e-02 0.00e+00 2.33e-01  -4.3 8.27e-02    -  1.00e+00 1.00e+00f  1
   7  8.6575441e-02 0.00e+00 1.57e-01  -5.7 5.37e-02    -  1.00e+00 1.00e+00f  1
   8  8.4532671e-02 0.00e+00 2.20e-02  -6.0 3.23e-02    -  1.00e+00 1.00e+00f  1
   9  8.4345511e-02 0.00e+00 2.03e-02  -7.7 5.19e-03    -  1.00e+00 1.00e+00f  1
iter    objective    inf_pr   inf_du lg(mu)  ||d||  lg(rg) alpha_du alpha_pr  ls
  10  8.2686947e-02 0.00e+00 2.95e-02  -9.4 2.27e-02    -  1.00e+00 1.00e+00f  1
  11  8.0198694e-02 0.00e+00 1.80e-01 -10.6 1.55e-01    -  1.00e+00 5.00e-01f  2
  12  7.9146814e-02 0.00e+00 1.41e-01 -11.0 7.47e-02    -  1.00e+00 1.00e+00f  1
  13  7.9102899e-02 0.00e+00 6.97e-02 -11.0 1.17e-01    -  1.00e+00 2.50e-01f  3
  14  7.8331124e-02 0.00e+00 1.89e-02 -11.0 2.22e-02    -  1.00e+00 1.00e+00f  1
  15  7.8209721e-02 0.00e+00 1.56e-02 -11.0 2.21e-02    -  1.00e+00 2.50e-01f  3
  16  7.8117567e-02 0.00e+00 2.67e-02 -11.0 6.26e-02    -  1.00e+00 6.25e-02f  5
  17  7.8012349e-02 0.00e+00 2.55e-02 -11.0 7.78e-02    -  1.00e+00 6.25e-02f  5
  18  7.7140347e-02 0.00e+00 1.22e-01 -11.0 3.87e-01    -  1.00e+00 5.00e-01f  2
  19  7.7059917e-02 0.00e+00 6.09e-02 -10.2 1.24e+00    -  1.00e+00 3.12e-02f  6
iter    objective    inf_pr   inf_du lg(mu)  ||d||  lg(rg) alpha_du alpha_pr  ls
  20  7.6854342e-02 0.00e+00 6.12e-02 -10.8 6.28e-01    -  1.00e+00 3.12e-02f  6
  21  7.6793660e-02 0.00e+00 2.69e-02 -11.0 2.44e-01    -  1.00e+00 1.25e-01f  4
  22  7.5919985e-02 0.00e+00 7.05e-02 -11.0 4.42e-01    -  1.00e+00 2.50e-01f  3
  23  7.5112325e-02 0.00e+00 1.10e-01 -11.0 3.86e-01    -  1.00e+00 2.50e-01f  3
  24  7.4560107e-02 0.00e+00 6.91e-02 -11.0 2.18e+00    -  1.00e+00 2.40e-02f  6
  25  7.4119044e-02 0.00e+00 6.66e-02 -11.0 5.97e-01    -  1.00e+00 2.50e-01f  3
  26  7.4037338e-02 0.00e+00 6.31e-02 -10.6 2.06e+00    -  1.00e+00 6.17e-03f  8
  27  7.4009683e-02 0.00e+00 6.24e-02 -11.0 7.97e-02    -  1.00e+00 1.56e-02f  7
  28  7.3825842e-02 0.00e+00 4.81e-02 -11.0 4.27e-01    -  1.00e+00 3.12e-02f  6
  29  7.3820492e-02 0.00e+00 4.12e-02 -11.0 5.01e-01    -  1.00e+00 3.91e-03f  9
iter    objective    inf_pr   inf_du lg(mu)  ||d||  lg(rg) alpha_du alpha_pr  ls
  30  7.3697275e-02 0.00e+00 5.19e-02 -11.0 2.21e-02    -  1.00e+00 5.00e-01f  2
  31  7.3606334e-02 0.00e+00 6.32e-02 -11.0 2.52e-02    -  1.00e+00 2.50e-01f  3
  32  7.3448258e-02 0.00e+00 2.76e-02 -11.0 2.58e-02    -  1.00e+00 1.00e+00f  1
  33  7.3274425e-02 0.00e+00 1.94e-02 -11.0 3.23e-02    -  1.00e+00 5.00e-01f  2
  34  7.3258707e-02 0.00e+00 3.17e-02 -11.0 4.40e-02    -  1.00e+00 3.12e-02f  6
  35  7.3256478e-02 0.00e+00 3.15e-02 -11.0 4.03e-02    -  1.00e+00 3.91e-03f  9
  36  7.3249060e-02 0.00e+00 2.46e-02 -11.0 1.25e-01    -  1.00e+00 3.91e-03f  9
  37  7.3248307e-02 0.00e+00 2.45e-02 -11.0 8.47e-03    -  1.00e+00 1.56e-02f  7
  38  7.3244740e-02 0.00e+00 2.54e-02 -11.0 1.29e-01    -  1.00e+00 7.81e-03f  8
  39  7.3243253e-02 0.00e+00 2.47e-02 -11.0 2.90e-01    -  1.00e+00 7.81e-03f  8
iter    objective    inf_pr   inf_du lg(mu)  ||d||  lg(rg) alpha_du alpha_pr  ls
  40  7.3242781e-02 0.00e+00 2.46e-02 -11.0 6.81e-02    -  1.00e+00 9.77e-04f 11
  41  7.3242519e-02 0.00e+00 2.46e-02 -11.0 3.11e-02    -  1.00e+00 1.95e-03f 10
  42  7.3242357e-02 0.00e+00 2.45e-02 -11.0 7.83e-02    -  1.00e+00 1.22e-04f 14
  43  7.3228165e-02 0.00e+00 1.97e-02 -11.0 3.32e-02    -  1.00e+00 3.12e-02f  6
  44  7.3217240e-02 0.00e+00 1.99e-02 -11.0 1.91e-01    -  1.00e+00 7.81e-03f  8
  45  7.3215159e-02 0.00e+00 1.99e-02 -11.0 7.46e-02    -  1.00e+00 1.95e-03f 10
  46  7.3212525e-02 0.00e+00 1.99e-02 -11.0 3.68e-02    -  1.00e+00 3.91e-03f  9
  47  7.3211705e-02 0.00e+00 1.99e-02 -11.0 1.45e-01    -  1.00e+00 2.44e-04f 13
  48  7.3211431e-02 0.00e+00 1.99e-02 -11.0 3.37e-01    -  1.00e+00 3.05e-05f 16
  49  7.3211375e-02 0.00e+00 1.99e-02 -11.0 1.55e-01    -  1.00e+00 1.53e-05f 17
iter    objective    inf_pr   inf_du lg(mu)  ||d||  lg(rg) alpha_du alpha_pr  ls
  50  7.3211352e-02 0.00e+00 1.99e-02 -11.0 4.77e-01    -  1.00e+00 1.91e-06f 20
  51  7.3211349e-02 0.00e+00 1.99e-02 -11.0 1.41e-01    -  1.00e+00 9.54e-07f 21
  52  7.3207102e-02 0.00e+00 2.48e-02 -11.0 2.03e+00    -  1.00e+00 3.16e-04f 12
  53  7.3203855e-02 0.00e+00 2.47e-02 -11.0 1.86e-03    -  1.00e+00 1.25e-01f  4
  54  7.3203554e-02 0.00e+00 2.46e-02 -11.0 4.13e-02    -  1.00e+00 9.77e-04f 11
  55  7.3203371e-02 0.00e+00 2.46e-02 -11.0 2.22e-02    -  1.00e+00 9.77e-04f 11
  56  7.3203343e-02 0.00e+00 2.45e-02 -11.0 4.75e-02    -  1.00e+00 1.22e-04f 14
  57  7.3198057e-02 0.00e+00 2.58e-02 -11.0 1.44e-01    -  1.00e+00 7.81e-03f  8
  58  7.3197508e-02 0.00e+00 2.57e-02 -11.0 1.77e-03    -  1.00e+00 1.56e-02f  7
  59  7.3197398e-02 0.00e+00 2.56e-02 -11.0 3.73e-03    -  1.00e+00 9.77e-04f 11
iter    objective    inf_pr   inf_du lg(mu)  ||d||  lg(rg) alpha_du alpha_pr  ls
  60  7.3197378e-02 0.00e+00 2.56e-02 -11.0 3.44e-03    -  1.00e+00 2.44e-04f 13
  61  7.3197359e-02 0.00e+00 2.56e-02 -11.0 4.44e-03    -  1.00e+00 2.44e-04f 13
  62  7.3197347e-02 0.00e+00 2.56e-02 -11.0 6.38e-03    -  1.00e+00 1.22e-04f 14
  63  7.3196674e-02 0.00e+00 2.57e-02 -11.0 1.54e-02    -  1.00e+00 3.91e-03f  9
  64  7.3196652e-02 0.00e+00 2.57e-02 -11.0 1.23e-03    -  1.00e+00 1.95e-03f 10
  65  7.3196626e-02 0.00e+00 2.56e-02 -11.0 2.67e-02    -  1.00e+00 1.22e-04f 14
  66  7.3196616e-02 0.00e+00 2.56e-02 -11.0 3.81e-03    -  1.00e+00 2.44e-04f 13
  67  7.3196542e-02 0.00e+00 2.56e-02 -11.0 1.67e-02    -  1.00e+00 9.77e-04f 11
  68  7.3196521e-02 0.00e+00 2.56e-02 -11.0 8.75e-03    -  1.00e+00 2.44e-04f 13
  69  7.3924810e-02 0.00e+00 2.14e-02 -11.0 5.84e-03    -  1.00e+00 1.00e+00w  1
iter    objective    inf_pr   inf_du lg(mu)  ||d||  lg(rg) alpha_du alpha_pr  ls
  70  7.3877328e-02 0.00e+00 2.56e-02 -11.0 6.16e-03    -  1.00e+00 1.00e+00w  1
  71  7.3903872e-02 0.00e+00 3.71e-02 -11.0 9.02e-03    -  1.00e+00 1.00e+00w  1
  72  7.3196500e-02 0.00e+00 2.56e-02 -11.0 1.27e-02    -  1.00e+00 4.88e-04f 11
  73  7.3196498e-02 0.00e+00 2.56e-02 -11.0 2.37e-02    -  1.00e+00 7.63e-06f 18
  74  7.3196498e-02 0.00e+00 2.56e-02 -11.0 1.11e-03    -  1.00e+00 3.05e-05f 16
  75  7.3196492e-02 0.00e+00 2.56e-02 -11.0 8.25e-03    -  1.00e+00 3.05e-05f 16
  76  7.3196491e-02 0.00e+00 2.56e-02 -11.0 4.60e-02    -  1.00e+00 1.91e-06f 20
  77  7.3196489e-02 0.00e+00 2.57e-02 -11.0 1.18e-01    -  1.00e+00 9.54e-07f 21
  78  7.3196488e-02 0.00e+00 2.57e-02 -11.0 1.34e-03    -  1.00e+00 1.22e-04f 14
  79  7.3196487e-02 0.00e+00 2.57e-02 -11.0 5.49e-03    -  1.00e+00 1.53e-05f 17
iter    objective    inf_pr   inf_du lg(mu)  ||d||  lg(rg) alpha_du alpha_pr  ls
  80  7.3196486e-02 0.00e+00 2.57e-02 -11.0 4.43e-02    -  1.00e+00 7.63e-06f 18
  81  7.3196486e-02 0.00e+00 2.57e-02 -11.0 2.75e-03    -  1.00e+00 7.63e-06f 18
  82  7.3918447e-02 0.00e+00 2.15e-02 -11.0 3.67e-03    -  1.00e+00 1.00e+00w  1
  83  8.0764610e-02 0.00e+00 1.59e-01 -11.0 4.93e-02    -  1.00e+00 1.00e+00w  1
  84  7.3961390e-02 0.00e+00 2.50e-02 -11.0 4.58e-02    -  1.00e+00 1.00e+00w  1
  85  7.3196486e-02 0.00e+00 2.57e-02 -11.0 7.76e-03    -  1.00e+00 9.54e-07f 20
  86  7.3196486e-02 0.00e+00 2.57e-02 -11.0 4.84e-03    -  1.00e+00 1.19e-07f 24
  87  7.3196486e-02 0.00e+00 2.57e-02 -11.0 2.22e-02    -  1.00e+00 7.45e-09f 28
  88  7.3196486e-02 0.00e+00 2.56e-02 -11.0 5.37e-02    -  1.00e+00 4.77e-07f 22
  89  7.3196486e-02 0.00e+00 2.56e-02 -11.0 5.98e-04    -  1.00e+00 3.05e-05f 16
iter    objective    inf_pr   inf_du lg(mu)  ||d||  lg(rg) alpha_du alpha_pr  ls
  90  7.3196486e-02 0.00e+00 2.56e-02 -11.0 2.60e-03    -  1.00e+00 1.91e-06f 20
  91  7.3196486e-02 0.00e+00 2.56e-02 -11.0 3.14e-03    -  1.00e+00 9.54e-07f 21
  92  7.3196486e-02 0.00e+00 2.56e-02 -11.0 2.94e-03    -  1.00e+00 2.38e-07f 23
  93  7.3196486e-02 0.00e+00 2.56e-02 -11.0 1.12e-02    -  1.00e+00 1.19e-07f 24
  94  7.3196485e-02 0.00e+00 2.56e-02 -11.0 1.49e-02    -  1.00e+00 1.53e-05f 17
  95  7.4129229e-02 0.00e+00 2.16e-02 -11.0 1.43e-02    -  1.00e+00 1.00e+00w  1
  96  7.4073584e-02 0.00e+00 6.33e-02 -11.0 8.41e-03    -  1.00e+00 1.00e+00w  1
  97  7.4704411e-02 0.00e+00 7.90e-02 -11.0 4.48e-02    -  1.00e+00 1.00e+00w  1
  98  7.3196484e-02 0.00e+00 2.57e-02 -11.0 1.77e-02    -  1.00e+00 1.91e-06f 19
  99  7.3196484e-02 0.00e+00 2.57e-02 -11.0 6.78e-02    -  1.00e+00 1.19e-07f 24
iter    objective    inf_pr   inf_du lg(mu)  ||d||  lg(rg) alpha_du alpha_pr  ls
 100  7.3196484e-02 0.00e+00 2.56e-02 -11.0 1.60e-02    -  1.00e+00 5.96e-08f 25

Number of Iterations....: 100

                                   (scaled)                 (unscaled)
Objective...............:   7.3196484262206027e-02    7.3196484262206027e-02
Dual infeasibility......:   2.5586556860317571e-02    2.5586556860317571e-02
Constraint violation....:   0.0000000000000000e+00    0.0000000000000000e+00
Variable bound violation:   0.0000000000000000e+00    0.0000000000000000e+00
Complementarity.........:   1.0221779187013771e-11    1.0221779187013771e-11
Overall NLP error.......:   2.5586556860317571e-02    2.5586556860317571e-02


Number of objective function evaluations             = 1262
Number of objective gradient evaluations             = 101
Number of equality constraint evaluations            = 0
Number of inequality constraint evaluations          = 1262
Number of equality constraint Jacobian evaluations   = 0
Number of inequality constraint Jacobian evaluations = 101
Number of Lagrangian Hessian evaluations             = 0
Total seconds in IPOPT                               = 1.008

EXIT: Maximum Number of Iterations Exceeded.
